Name: Fis0506-1
Courses: 30
Rooms: 6
Days: 5
Periods_per_day: 6
Curricula: 14

COURSES:
c0001 t000 6 130 
c0002 t001 6 75 
c0004 t002 7 117 
c0005 t003 3 75 
c0014 t004 1 65 
c0015 t005 8 65 
c0016 t006 7 65 
c0017 t007 2 65 
c0024 t008 4 55 
c0025 t009 8 55 
c0078 t010 5 55 
c0030 t011 5 20 
c0031 t012 5 11 
c0032 t013 1 31 
c0033 t014 6 31 
c0057 t015 5 2 
c0058 t016 5 2 
c0059 t017 6 7 
c0061 t018 6 6 
c0062 t019 5 10 
c0063 t020 6 8 
c0064 t020 6 6 
c0065 t021 6 5 
c0066 t008 6 14 
c0067 t022 5 7 
c0068 t023 6 9 
c0069 t007 6 7 
c0070 t002 6 4 
c0071 t001 6 10 
c0072 t003 6 9 

ROOMS:
rB 200 
rC 100 
rE 9 
rF 30 
rG 20 
rS 30 

CURRICULA:
q000 4 c0001 c0002 c0004 c0005 
q001 4 c0014 c0015 c0016 c0017 
q002 4 c0024 c0025 c0001 c0078 
q003 3 c0030 c0032 c0033 
q004 3 c0031 c0032 c0033 
q005 3 c0070 c0066 c0072 
q006 2 c0057 c0059 
q007 2 c0061 c0062 
q008 3 c0065 c0059 c0072 
q009 4 c0063 c0064 c0066 c0071 
q010 3 c0058 c0063 c0068 
q011 3 c0069 c0067 c0068 
q012 1 c0004 
q013 3 c0062 c0066 c0071 

